CMD:
./solvers/bin/cadical --plain --no-reduce -t 1600 ./data/cnfs//arbitrated_top_n2_w8_d128_e0/arbitrated_top_n2_w8_d128_e0.43.cnf

c --- [ banner ] -------------------------------------------------------------
c 
c CaDiCaL SAT Solver
c Copyright (c) 2016-2024
c A. Biere, M. Fleury, N. Froleyks, K. Fazekas, F. Pollitt, T. Faller
c JKU Linz, University of Freiburg, TU Wien
c 
c Version 2.1.3 5296d3d2a9bf48c154ab2acb5e44625776d821bf
c g++ (Gentoo 12.3.1_p20230526 p2) 12.3.1 20230526 -Wall -Wextra -O3 -DNDEBUG
c Sat Aug 9 07:26:21 PDT 2025 Linux cedar2.int.cedar.computecanada.ca 5.14.0-362.24.2.el9_3.x86_64 x86_64
c 
c --- [ limit ] --------------------------------------------------------------
c 
c setting time limit to 1600 seconds real time (due to '-t 1600')
c 
c --- [ parsing input ] ------------------------------------------------------
c 
c reading DIMACS file from './data/cnfs//arbitrated_top_n2_w8_d128_e0/arbitrated_top_n2_w8_d128_e0.43.cnf'
c opening file to read './data/cnfs//arbitrated_top_n2_w8_d128_e0/arbitrated_top_n2_w8_d128_e0.43.cnf'
c found 'p cnf 569527 1698885' header
c parsed 1698885 clauses in 0.27 seconds process time
c 
c --- [ options ] ------------------------------------------------------------
c 
c   --compact=false                (different from default 'true')
c   --decompose=false              (different from default 'true')
c   --deduplicate=false            (different from default 'true')
c   --elim=false                   (different from default 'true')
c   --probe=false                  (different from default 'true')
c   --reduce=false                 (different from default 'true')
c   --subsume=false                (different from default 'true')
c   --ternary=false                (different from default 'true')
c   --transred=false               (different from default 'true')
c   --vivify=false                 (different from default 'true')
c 
c --- [ solving ] ------------------------------------------------------------
c 
c time measured in process time since initialization
c 
c  seconds   reductions  redundant   irredundant
c          MB    restarts       trail        variables
c           level   conflicts       glue           remaining
c 
c *  0.27 235  0 0   0    0    0  0% 0 1324864 316125 56%
c {  0.31 241  0 0   0    0    0  0% 0 1324864 316125 56%
c i  0.43 241 699 0   4  232  212 70% 2 1324864 316117 56%
c i  0.44 241 623 0   6  262  237 67% 2 1324864 316021 55%
c i  0.46 241 616 0   7  266  240 67% 2 1324864 315964 55%
c i  0.46 241 604 0   7  273  246 67% 2 1324864 315949 55%
c i  0.46 241 596 0   7  277  249 66% 2 1324864 315891 55%
c i  0.49 241 596 0   7  290  259 67% 2 1324864 315636 55%
c i  0.49 241 579 0   7  302  266 67% 2 1324864 315629 55%
c i  0.50 241 565 0   7  311  274 66% 2 1324864 315628 55%
c i  0.50 241 558 0   7  315  276 66% 2 1324864 315092 55%
c i  0.50 241 555 0   7  317  277 66% 2 1324864 315070 55%
c i  0.51 241 515 0   8  343  299 65% 2 1324864 313556 55%
c i  0.51 241 509 0   9  348  301 64% 2 1324864 313143 55%
c i  0.51 241 503 0   9  352  304 64% 2 1324864 312704 55%
c i  0.52 241 492 0   9  361  312 64% 2 1324864 312666 55%
c i  0.63 241 405 0  36  486  424 62% 3 1324864 312285 55%
c i  0.67 241 351 0  60  575  506 59% 3 1324864 312275 55%
c i  0.67 241 349 0  61  579  509 59% 3 1324864 312270 55%
c i  0.67 241 338 0  62  598  526 59% 3 1324864 312267 55%
c 
c  seconds    reductions  redundant   irredundant
c          MB     restarts       trail        variables
c            level   conflicts       glue           remaining
c 
c i  0.72 241 290 0  71  715  640 57% 4 1324864 312244 55%
c i  0.81 241 234 0 115  925  836 55% 4 1324864 311868 55%
c }  0.81 241 218 0 118 1000  899 54% 4 1324864 311868 55%
c [  0.81 241  0 0 118 1000  899  0% 0 1324864 311868 55%
c i  0.83 241 2176 0 118 1001  899 48% 0 1324864 311867 55%
c O  0.84 241 2186 0 118 1002  900 50% 1 1324864 311867 55%
c i  1.10 241 2517 0 119 2114 1910 74% 3 1324864 311175 55%
c ]  1.24 241 1399 0 119 3002 2696 64% 3 1324864 311175 55%
c {  1.24 241 218 0 119 3002 2696 54% 4 1324864 311175 55%
c F  1.24 241 218 0 120 3003 2697 54% 4 1324864 311175 55%
c i  1.26 241 214 0 127 3027 2718 54% 4 1324864 311174 55%
c i  1.27 241 213 0 129 3034 2723 54% 4 1324864 311162 55%
c i  1.32 241 203 0 146 3099 2785 54% 4 1324864 310651 55%
c i  1.32 241 203 0 146 3100 2785 54% 4 1324864 310648 55%
c i  1.33 241 201 0 146 3108 2790 54% 4 1324864 310441 55%
c i  1.33 241 195 0 146 3140 2813 54% 4 1324864 310041 54%
c i  1.42 241 170 0 168 3383 3043 53% 4 1324864 309988 54%
c i  1.42 241 170 0 168 3387 3046 53% 4 1324864 309965 54%
c i  1.42 241 169 0 168 3388 3046 53% 4 1324864 309930 54%
c i  1.42 241 169 0 168 3394 3050 53% 4 1324864 309680 54%
c 
c  seconds    reductions  redundant   irredundant
c          MB     restarts       trail        variables
c            level   conflicts       glue           remaining
c 
c i  1.54 241 158 0 193 3592 3231 53% 4 1324864 308821 54%
c i  1.60 241 149 0 203 3846 3473 53% 4 1324864 305421 54%
c i  1.60 241 149 0 203 3850 3476 53% 4 1324864 305286 54%
c i  1.60 241 149 0 203 3854 3478 53% 4 1324864 302061 53%
... skipped 234 lines ...
c W 465.21 385 72 0 45903 861067 793316 56% 17 705050 281597 49%
c O 483.76 406 64 0 45915 903069 833716 56% 17 705050 281597 49%
c B 504.95 414 49 0 45935 946072 871858 55% 16 705050 281597 49%
c W 524.15 428 46 0 45937 990073 913498 55% 16 705050 281597 49%
c ] 538.88 442 47 0 45950 1023015 945413 55% 17 705050 281597 49%
c { 538.88 442 31 0 45950 1023015 945413 53% 9 705050 281597 49%
c i 538.91 442 31 0 45953 1023044 945439 53% 9 705050 281587 49%
c 
c  seconds    reductions        redundant   irredundant
c           MB     restarts             trail       variables
c            level       conflicts          glue          remaining
c 
c i 558.29 479 31 0 47317 1034238 955500 53% 9 705050 281532 49%
c # 560.39 481 31 0 47441 1035075 956289 53% 9 705050 281532 49%
c i 565.36 483 31 0 47844 1036793 957889 53% 9 705050 281517 49%
c i 635.11 501 30 0 52949 1063171 982425 53% 10 705050 281502 49%
c i 642.06 502 30 0 53417 1066566 985499 53% 10 705050 281485 49%
c i 654.16 505 30 0 54048 1072681 991145 53% 10 705050 281478 49%
c B 671.91 508 30 0 55196 1081076 999110 53% 10 705050 281478 49%
c W 764.07 624 29 0 60593 1128078 1014726 53% 10 704679 281478 49%
c i 777.71 624 28 0 61321 1137435 1022986 53% 10 704679 281472 49%
c F 845.11 625 29 0 64922 1176079 1058684 53% 10 704679 281472 49%
c i 911.34 626 27 0 68712 1214945 1093208 53% 10 704679 281412 49%
c B 928.33 626 27 0 69753 1225080 1102736 54% 10 704679 281412 49%
c i 928.67 626 27 0 69773 1225158 1102810 54% 10 704679 281406 49%
c i 990.55 628 25 0 72730 1264636 1136903 53% 10 704679 281395 49%
c W 1020.92 640 26 0 74461 1275084 1085147 53% 10 704419 281395 49%
c i 1101.86 644 27 0 79258 1307134 1115475 53% 11 704419 281393 49%
c i 1101.86 644 27 0 79258 1307135 1115475 53% 11 704419 281388 49%
c # 1132.71 644 27 0 80770 1326085 1132059 53% 11 704419 281388 49%
c i 1158.35 644 27 0 82043 1337779 1143158 53% 11 704419 281382 49%
c i 1177.38 644 27 0 83036 1343767 1148546 53% 11 704419 281360 49%
c 
c   seconds    reductions         redundant    irredundant
c            MB     restarts              trail        variables
c             level       conflicts           glue           remaining
c 
c i 1197.90 644 28 0 84058 1352531 1156451 53% 11 704419 281349 49%
c B 1264.86 644 29 0 87602 1378086 1180886 54% 11 704419 281349 49%
c W 1377.21 664 29 0 93068 1431087 1212375 53% 11 704276 281349 49%
c i 1386.75 664 28 0 93402 1438165 1219041 53% 11 704276 281334 49%
c i 1425.62 665 29 0 95269 1457300 1237148 53% 11 704276 281332 49%
c F 1488.48 665 30 0 98323 1485089 1263461 53% 11 704276 281332 49%
c i 1503.91 665 30 0 99026 1493692 1271582 54% 11 704276 281331 49%
c } 1590.63 667 30 0 103061 1536424 1310635 54% 11 704276 281331 49%
c ? 1590.63 667 30 0 103061 1536424 1310635 54% 11 704276 281331 49%
c 
c --- [ result ] -------------------------------------------------------------
c 
c UNKNOWN
c 
c --- [ run-time profiling ] -------------------------------------------------
c 
c process time taken by individual solving procedures
c (percentage relative to process time for solving)
c 
c      1590.35  100.00% search
c      1332.90   83.81% unstable
c       248.82   15.65% stable
c         8.59    0.54% walk
c         0.27    0.02% parse
c         0.04    0.00% lucky
c         0.00    0.00% simplify
c   =================================
c      1590.35   99.98% solve
c 
c last line shows process time for solving
c (percentage relative to total process time)
c 
c --- [ statistics ] ---------------------------------------------------------
c 
c chronological:            266284        17.33 %  of conflicts
c conflicts:               1536424       966.09    per second
c decisions:               5370475      3376.91    per second
c fixed:                    288181        50.60 %  of all variables
c learned:                 1511814        98.40 %  per conflict
c learned_lits:          105735485       100.00 %  learned literals
c minimized:                     0         0.00 %  learned literals
c shrunken:               17430759        16.49 %  learned literals
c minishrunken:           29672406        28.06 %  learned literals
c otfs:                       4171         0.27 %  of conflict
c propagations:         3485015710         2.19 M  per second
c rephased:                     54     28452.30    interval
c restarts:                 103061        14.91    interval
c stabilizing:                   5        44.39 %  of conflicts
c subsumed:                  80569         2.84 %  of all clauses
c strengthened:               4057         0.14 %  of all clauses
c walked:                       17     90377.88    interval
c 
c seconds are measured in process time for solving
c 
c --- [ resources ] ----------------------------------------------------------
c 
c total process time since initialization:      1590.63    seconds
c total real time since initialization:         1600.00    seconds
c maximum resident set size of process:          883.90    MB
c 
c --- [ shutting down ] ------------------------------------------------------
c 
c exit 0
